Please solve the following SAT Problem encoded in DIMACS format, only return a single solution assignment without explanations, if there is any: 
p cnf 10 45
4 -10 6 0
-6 -5 4 0
1 2 9 0
-7 9 6 0
-3 6 -10 0
-7 4 9 0
2 -8 3 0
-10 -3 -5 0
1 -5 8 0
-10 7 3 0
-5 9 2 0
9 -1 3 0
-7 -8 1 0
8 2 1 0
5 3 -10 0
4 -7 9 0
-7 1 6 0
9 4 -7 0
-7 4 -8 0
9 6 2 0
1 6 -10 0
-8 -10 1 0
4 -5 3 0
2 -7 -8 0
-4 -5 -10 0
-10 9 -8 0
1 -10 -7 0
3 6 -10 0
2 -1 -7 0
4 2 -10 0
4 -2 1 0
-8 1 -9 0
4 3 -5 0
9 1 4 0
9 2 -10 0
9 6 1 0
6 2 4 0
-3 -7 6 0
7 1 9 0
6 1 -7 0
3 6 -7 0
3 1 9 0
7 2 -5 0
10 -4 1 0
-10 9 -8 0

